
Gurobi 10.0.1 (linux64) logging started Sun 16 Jul 2023 12:08:29 AM CDT

Set parameter LogFile to value "/home/dlcole3/graph_abstraction/plasmoexamples/SHP_serial/SHP_reserve_requirements/gurobi_logs/logfile17.log"
Set parameter NodefileStart to value 0.0005
Set parameter TimeLimit to value 36000
Gurobi Optimizer version 10.0.1 build v10.0.1rc0 (linux64)

CPU model: Intel(R) Xeon(R) CPU E5-2698 v4 @ 2.20GHz, instruction set [SSE2|AVX|AVX2]
Thread count: 40 physical cores, 80 logical processors, using up to 8 threads


Warning: excessive time spent in model updates.
Consider calling update less frequently.

Optimize a model with 1103654 rows, 641709 columns and 4636589 nonzeros
Model fingerprint: 0x4a20b86c
Variable types: 599982 continuous, 41727 integer (41727 binary)
Coefficient statistics:
  Matrix range     [5e-02, 2e+04]
  Objective range  [2e-01, 8e+04]
  Bounds range     [5e-02, 2e+04]
  RHS range        [2e-19, 7e+03]
Presolve removed 268484 rows and 124073 columns (presolve time = 5s) ...
Presolve removed 276071 rows and 124893 columns (presolve time = 10s) ...
Presolve removed 278036 rows and 127994 columns (presolve time = 15s) ...
Presolve removed 286901 rows and 132537 columns (presolve time = 20s) ...
Presolve removed 291501 rows and 133444 columns (presolve time = 25s) ...
Presolve removed 291511 rows and 133464 columns (presolve time = 30s) ...
Presolve removed 291541 rows and 133494 columns (presolve time = 35s) ...
Presolve removed 291841 rows and 133514 columns (presolve time = 40s) ...
Sparsify removed 204871 nonzeros (5%)
Presolve removed 291841 rows and 132360 columns
Presolve time: 44.45s
Presolved: 811813 rows, 509349 columns, 3959055 nonzeros
Variable types: 475726 continuous, 33623 integer (33566 binary)

Deterministic concurrent LP optimizer: primal simplex, dual simplex, and barrier
Showing barrier log only...

Root barrier log...

Elapsed ordering time = 5s
Elapsed ordering time = 17s
Elapsed ordering time = 20s
Elapsed ordering time = 25s
Elapsed ordering time = 30s
Elapsed ordering time = 35s
Elapsed ordering time = 40s
Elapsed ordering time = 45s
Elapsed ordering time = 46s
Elapsed ordering time = 50s
Elapsed ordering time = 55s
Elapsed ordering time = 58s
Elapsed ordering time = 61s
Elapsed ordering time = 65s
Ordering time: 70.08s

Barrier statistics:
 Dense cols : 218
 AA' NZ     : 2.361e+07
 Factor NZ  : 3.652e+08 (roughly 3.5 GB of memory)
 Factor Ops : 1.812e+12 (roughly 16 seconds per iteration)
 Threads    : 5

                  Objective                Residual
Iter       Primal          Dual         Primal    Dual     Compl     Time
   0  -2.13915097e+11 -1.80077139e+13  1.24e+04 1.06e+04  1.17e+08   139s
   1  -1.45745253e+11 -1.26272674e+13  8.57e+03 8.55e+05  6.96e+07   149s
   2  -8.36699090e+10 -8.56031459e+12  5.10e+03 1.38e+05  3.82e+07   164s
   3  -2.59135111e+10 -3.42802800e+12  1.72e+03 1.62e+00  1.20e+07   180s
   4  -5.63884716e+09 -1.48658772e+12  5.64e+02 1.60e+00  3.88e+06   196s
   5   2.67034882e+09 -7.33201641e+11  1.22e+02 5.15e-01  1.00e+06   213s
   6   4.26986697e+09 -2.88521206e+11  3.64e+01 1.65e-01  2.87e+05   230s
   7   3.89210360e+09 -9.78138108e+10  1.09e+01 5.33e-02  8.08e+04   248s
   8   2.57741025e+09 -3.67846729e+10  3.81e+00 1.49e-02  2.73e+04   264s
   9   7.47917174e+08 -7.04064175e+09  1.00e+00 1.91e-03  5.04e+03   283s
  10   2.34293704e+08 -2.39511677e+09  2.25e-01 9.29e-04  1.60e+03   300s
  11   8.90397125e+07 -5.06853474e+08  2.09e-02 1.95e-04  3.52e+02   316s
  12   6.02579332e+07 -1.18977378e+08  1.41e-03 1.14e-04  1.06e+02   336s
  13   4.97631421e+07  6.43951410e+06  3.28e-04 5.51e-04  2.55e+01   357s
  14   4.39150082e+07  2.75550098e+07  1.10e-04 5.38e-04  9.63e+00   378s
  15   4.20120225e+07  3.33634503e+07  7.07e-05 2.64e-04  5.09e+00   395s
  16   4.02708651e+07  3.67166898e+07  3.51e-05 7.30e-05  2.09e+00   414s
  17   3.94190621e+07  3.77069265e+07  1.94e-05 8.03e-06  1.01e+00   432s
  18   3.90161939e+07  3.79951959e+07  1.27e-05 2.01e-05  6.01e-01   450s
  19   3.87422649e+07  3.81294885e+07  8.51e-06 1.11e-05  3.61e-01   468s
  20   3.85576459e+07  3.81956152e+07  5.32e-06 5.58e-06  2.13e-01   486s
  21   3.84722333e+07  3.82367911e+07  3.79e-06 2.68e-06  1.39e-01   503s
  22   3.84127577e+07  3.82449945e+07  2.74e-06 2.07e-06  9.88e-02   519s
  23   3.83593465e+07  3.82556628e+07  1.71e-06 7.87e-07  6.11e-02   535s
  24   3.83301305e+07  3.82587559e+07  1.26e-06 6.27e-07  4.20e-02   550s
  25   3.83265572e+07  3.82595283e+07  1.13e-06 5.82e-07  3.95e-02   568s
  26   3.83192840e+07  3.82616750e+07  1.00e-06 4.48e-07  3.39e-02   585s
  27   3.83112473e+07  3.82625266e+07  8.11e-07 3.94e-07  2.87e-02   603s
  28   3.82989483e+07  3.82640007e+07  5.93e-07 3.08e-07  2.06e-02   622s
  29   3.82942047e+07  3.82658844e+07  7.06e-07 2.10e-07  1.67e-02   644s
  30   3.82890920e+07  3.82663965e+07  1.27e-06 1.81e-07  1.34e-02   666s
  31   3.82871570e+07  3.82670881e+07  1.53e-06 1.47e-07  1.18e-02   689s
  32   3.82846012e+07  3.82673235e+07  1.73e-06 1.35e-07  1.02e-02   711s
  33   3.82823425e+07  3.82679501e+07  1.77e-06 9.90e-08  8.48e-03   734s
  34   3.82798590e+07  3.82680565e+07  2.02e-06 9.31e-08  6.95e-03   756s
  35   3.82776430e+07  3.82684891e+07  1.81e-06 7.01e-08  5.39e-03   777s
  36   3.82767166e+07  3.82688256e+07  1.86e-06 5.44e-08  4.65e-03   799s
  37   3.82746666e+07  3.82690242e+07  1.10e-06 4.40e-08  3.32e-03   821s
  38   3.82732266e+07  3.82693203e+07  7.06e-07 2.91e-08  2.30e-03   844s
  39   3.82718023e+07  3.82694279e+07  3.76e-07 2.40e-08  1.40e-03   865s
  40   3.82712667e+07  3.82696491e+07  3.72e-07 1.48e-08  9.53e-04   888s
  41   3.82710347e+07  3.82696862e+07  4.16e-07 1.30e-08  7.94e-04   908s
  42   3.82709463e+07  3.82697498e+07  4.62e-07 1.03e-08  7.05e-04   928s
  43   3.82707145e+07  3.82697874e+07  5.80e-07 8.62e-09  5.46e-04   951s
  44   3.82705513e+07  3.82699075e+07  6.10e-07 6.10e-09  3.79e-04   974s
  45   3.82703910e+07  3.82699270e+07  5.12e-07 9.07e-09  2.73e-04   996s
  46   3.82703169e+07  3.82699430e+07  4.94e-07 9.16e-09  2.20e-04  1019s
  47   3.82702540e+07  3.82699542e+07  4.93e-07 2.90e-09  1.77e-04  1041s
  48   3.82701847e+07  3.82699643e+07  4.29e-07 7.86e-09  1.30e-04  1064s
  49   3.82701426e+07  3.82699734e+07  6.13e-07 2.42e-09  9.97e-05  1086s
  50   3.82700837e+07  3.82699813e+07  1.13e-06 3.74e-09  6.03e-05  1109s
  51   3.82700550e+07  3.82699850e+07  1.28e-06 2.47e-09  4.13e-05  1131s

Barrier solved model in 51 iterations and 1130.94 seconds (1108.53 work units)
Optimal objective 3.82700550e+07


Root crossover log...

  359654 DPushes remaining with DInf 1.7156405e-01              1132s
  131079 DPushes remaining with DInf 0.0000000e+00              1137s
  105199 DPushes remaining with DInf 0.0000000e+00              1141s
   90651 DPushes remaining with DInf 0.0000000e+00              1145s
   73354 DPushes remaining with DInf 0.0000000e+00              1152s
   63836 DPushes remaining with DInf 0.0000000e+00              1157s
   56049 DPushes remaining with DInf 0.0000000e+00              1161s
   49654 DPushes remaining with DInf 0.0000000e+00              1166s
   44468 DPushes remaining with DInf 0.0000000e+00              1171s
   40871 DPushes remaining with DInf 0.0000000e+00              1176s
   38165 DPushes remaining with DInf 0.0000000e+00              1183s
   37086 DPushes remaining with DInf 0.0000000e+00              1187s
   35547 DPushes remaining with DInf 0.0000000e+00              1192s
   34554 DPushes remaining with DInf 0.0000000e+00              1197s
   33636 DPushes remaining with DInf 0.0000000e+00              1200s
   32263 DPushes remaining with DInf 0.0000000e+00              1206s
   30722 DPushes remaining with DInf 0.0000000e+00              1211s
   27745 DPushes remaining with DInf 0.0000000e+00              1216s
   24592 DPushes remaining with DInf 0.0000000e+00              1221s
   21754 DPushes remaining with DInf 0.0000000e+00              1226s
   18373 DPushes remaining with DInf 0.0000000e+00              1231s
   16068 DPushes remaining with DInf 0.0000000e+00              1236s
   14466 DPushes remaining with DInf 0.0000000e+00              1240s
    9991 DPushes remaining with DInf 0.0000000e+00              1246s
    8050 DPushes remaining with DInf 0.0000000e+00              1252s
    7136 DPushes remaining with DInf 0.0000000e+00              1255s
    6216 DPushes remaining with DInf 0.0000000e+00              1260s
    3497 DPushes remaining with DInf 0.0000000e+00              1267s
    2573 DPushes remaining with DInf 0.0000000e+00              1271s
    1649 DPushes remaining with DInf 0.0000000e+00              1275s
       0 DPushes remaining with DInf 0.0000000e+00              1281s

  273435 PPushes remaining with PInf 5.6167507e+02              1282s
   89492 PPushes remaining with PInf 6.5369788e+01              1288s
   27669 PPushes remaining with PInf 2.4562199e+02              1291s
   17050 PPushes remaining with PInf 2.6222548e+02              1295s
   12879 PPushes remaining with PInf 2.1393031e+01              1301s
    7669 PPushes remaining with PInf 1.4244617e+01              1306s
     451 PPushes remaining with PInf 8.5317008e+00              1313s
       0 PPushes remaining with PInf 8.3922222e+00              1316s

  Push phase complete: Pinf 8.3922222e+00, Dinf 1.4972183e+07   1316s


Root simplex log...

Iteration    Objective       Primal Inf.    Dual Inf.      Time
  431532    3.8270003e+07   0.000000e+00   1.497218e+07   1317s
  432446    3.8269997e+07   0.000000e+00   1.749553e+03   1321s
  433040    3.8269996e+07   8.383060e+00   0.000000e+00   1326s
  433323    3.8269996e+07   0.000000e+00   0.000000e+00   1330s
  433323    3.8269996e+07   0.000000e+00   0.000000e+00   1332s
Waiting for other threads to finish...        1399s
Waiting for other threads to finish...        1466s
Waiting for other threads to finish...        1533s
Waiting for other threads to finish...        1600s
Concurrent spin time: 279.82s (can be avoided by choosing Method=3)

Solved with barrier

Root relaxation: objective 3.827000e+07, 433323 iterations, 1562.95 seconds (1323.79 work units)

    Nodes    |    Current Node    |     Objective Bounds      |     Work
 Expl Unexpl |  Obj  Depth IntInf | Incumbent    BestBd   Gap | It/Node Time

     0     0 3.8270e+07    0  960          - 3.8270e+07      -     - 1648s
     0     0 3.8270e+07    0  952          - 3.8270e+07      -     - 1665s
     0     0 3.8275e+07    0  631          - 3.8275e+07      -     - 1778s
     0     0 3.8275e+07    0  633          - 3.8275e+07      -     - 1811s
     0     0 3.8275e+07    0  633          - 3.8275e+07      -     - 1814s
     0     0 3.8278e+07    0  641          - 3.8278e+07      -     - 1856s
     0     0 3.8278e+07    0  640          - 3.8278e+07      -     - 1858s
     0     0 3.8278e+07    0  622          - 3.8278e+07      -     - 1898s
     0     0 3.8278e+07    0  653          - 3.8278e+07      -     - 1904s
     0     0 3.8278e+07    0  653          - 3.8278e+07      -     - 1908s
     0     0 3.8280e+07    0  563          - 3.8280e+07      -     - 1949s
     0     0 3.8280e+07    0  566          - 3.8280e+07      -     - 1987s
     0     0 3.8280e+07    0  562          - 3.8280e+07      -     - 1990s
     0     0 3.8281e+07    0  488          - 3.8281e+07      -     - 2033s
     0     0 3.8281e+07    0  477          - 3.8281e+07      -     - 2073s
     0     0 3.8281e+07    0  477          - 3.8281e+07      -     - 2077s
     0     0 3.8282e+07    0  526          - 3.8282e+07      -     - 2104s
     0     0 3.8282e+07    0  525          - 3.8282e+07      -     - 2141s
     0     0 3.8282e+07    0  522          - 3.8282e+07      -     - 2145s
     0     0 3.8282e+07    0  509          - 3.8282e+07      -     - 2170s
     0     0 3.8282e+07    0  506          - 3.8282e+07      -     - 2209s
     0     0 3.8282e+07    0  506          - 3.8282e+07      -     - 2213s
     0     0 3.8285e+07    0  512          - 3.8285e+07      -     - 2266s
     0     0 3.8285e+07    0  512          - 3.8285e+07      -     - 2297s
     0     0 3.8285e+07    0  512          - 3.8285e+07      -     - 2300s
     0     0 3.8287e+07    0  469          - 3.8287e+07      -     - 2322s
     0     0 3.8287e+07    0  469          - 3.8287e+07      -     - 2360s
     0     0 3.8288e+07    0  458          - 3.8288e+07      -     - 2386s
     0     0 3.8288e+07    0  464          - 3.8288e+07      -     - 2423s
     0     0 3.8288e+07    0  464          - 3.8288e+07      -     - 2428s
     0     0 3.8290e+07    0  508          - 3.8290e+07      -     - 2452s
     0     0 3.8290e+07    0  508          - 3.8290e+07      -     - 2475s
     0     0 3.8292e+07    0  654          - 3.8292e+07      -     - 2506s
     0     0 3.8292e+07    0  643          - 3.8292e+07      -     - 2534s
     0     0 3.8292e+07    0  641          - 3.8292e+07      -     - 2538s
     0     0 3.8292e+07    0  641          - 3.8292e+07      -     - 2561s
     0     0 3.8292e+07    0  641          - 3.8292e+07      -     - 2577s
     0     0 3.8293e+07    0  645          - 3.8293e+07      -     - 2599s
     0     0 3.8293e+07    0  658          - 3.8293e+07      -     - 2611s
     0     0 3.8293e+07    0  658          - 3.8293e+07      -     - 2615s
     0     0 3.8293e+07    0  644          - 3.8293e+07      -     - 2637s
     0     0 3.8293e+07    0  648          - 3.8293e+07      -     - 2670s
     0     0 3.8293e+07    0  649          - 3.8293e+07      -     - 2673s
     0     0 3.8293e+07    0  635          - 3.8293e+07      -     - 2696s
     0     0 3.8293e+07    0  637          - 3.8293e+07      -     - 2709s
     0     0 3.8293e+07    0  616          - 3.8293e+07      -     - 2731s
     0     0 3.8293e+07    0  616          - 3.8293e+07      -     - 2759s
     0     0 3.8293e+07    0  599          - 3.8293e+07      -     - 2780s
     0     0 3.8293e+07    0  578          - 3.8293e+07      -     - 2789s
     0     0 3.8293e+07    0  555          - 3.8293e+07      -     - 2809s
     0     0 3.8293e+07    0  555          - 3.8293e+07      -     - 2821s
     0     0 3.8294e+07    0  537          - 3.8294e+07      -     - 2840s
     0     0 3.8294e+07    0  544          - 3.8294e+07      -     - 2848s
     0     0 3.8294e+07    0  523          - 3.8294e+07      -     - 2867s
     0     0 3.8294e+07    0  523          - 3.8294e+07      -     - 2891s
     0     0 3.8294e+07    0  508          - 3.8294e+07      -     - 2908s
     0     0 3.8294e+07    0  508          - 3.8294e+07      -     - 2921s
     0     0 3.8294e+07    0  505          - 3.8294e+07      -     - 2937s
H    0     0                    8.975318e+09 3.8294e+07   100%     - 2939s
     0     0 3.8294e+07    0  505 8.9753e+09 3.8294e+07   100%     - 2953s
H    0     0                    8.543288e+09 3.8294e+07   100%     - 3084s
     0     1 3.8294e+07    0  505 8.5433e+09 3.8294e+07   100%     - 3121s
     1     2 3.8295e+07    1  527 8.5433e+09 3.8295e+07   100%   428 3139s
     2     3 3.8411e+07    2  379 8.5433e+09 3.8296e+07   100%  4180 3204s
     4     4 3.8414e+07    3  382 8.5433e+09 3.8362e+07   100%  5433 3266s
     7     7 3.8417e+07    4  435 8.5433e+09 3.8417e+07   100%  6867 3293s
    11    14 3.8417e+07    5  392 8.5433e+09 3.8417e+07   100%  4517 3343s
    18    20 3.8419e+07    6  417 8.5433e+09 3.8417e+07   100%  4235 4936s
    26    27 3.8424e+07    7  392 8.5433e+09 3.8418e+07   100% 17702 5032s
H   32    27                    8.537597e+09 3.8418e+07   100% 14515 5032s
    34    35 3.8422e+07    7  387 8.5376e+09 3.8420e+07   100% 13768 5091s
    42    41 3.8430e+07    8  428 8.5376e+09 3.8420e+07   100% 11440 5121s
    50    50 3.8425e+07    8  381 8.5376e+09 3.8420e+07   100%  9739 5153s
    60    55 3.8429e+07   10  366 8.5376e+09 3.8420e+07   100%  8263 5180s
    69    60 3.8431e+07   11  390 8.5376e+09 3.8420e+07   100%  7345 5235s
    79    67 3.8434e+07   12  389 8.5376e+09 3.8420e+07   100%  6555 5272s
    91    71 3.8435e+07   13  391 8.5376e+09 3.8420e+07   100%  5764 5318s
H  102    74                    8.497739e+09 3.8420e+07   100%  5245 5495s
H  106    74                    8.496204e+09 3.8420e+07   100%  5053 5495s
   111    79 3.8440e+07   15  433 8.4962e+09 3.8420e+07   100%  4901 5545s
   122    80 3.8444e+07   17  478 8.4962e+09 3.8420e+07   100%  4488 5583s
H  142    82                    8.415057e+09 3.8420e+07   100%  3898 5734s
H  143    82                    8.388460e+09 3.8420e+07   100%  3871 5734s
H  144    82                    8.367470e+09 3.8420e+07   100%  3846 5734s
H  145    82                    8.355837e+09 3.8420e+07   100%  3834 5734s
H  148    82                    8.339637e+09 3.8420e+07   100%  3757 5734s
   151    83 3.8444e+07   21  480 8.3396e+09 3.8420e+07   100%  3684 5773s
   170    87 3.8445e+07   23  472 8.3396e+09 3.8420e+07   100%  3280 5811s
   195    92 3.8445e+07   26  478 8.3396e+09 3.8420e+07   100%  2870 5869s
H  201    92                    5.213537e+09 3.8420e+07  99.3%  2787 5869s
H  203    92                    5.087383e+09 3.8420e+07  99.2%  2763 5869s
   212   104 3.8446e+07   29  479 5.0874e+09 3.8420e+07  99.2%  2673 5913s
   236   113 3.8447e+07   31  479 5.0874e+09 3.8420e+07  99.2%  2411 5959s
   252   132 3.8448e+07   32  475 5.0874e+09 3.8420e+07  99.2%  2266 6007s
   283   143 3.8482e+07   36  448 5.0874e+09 3.8420e+07  99.2%  2041 6066s
H  301   143                    1.742835e+08 3.8420e+07  78.0%  1933 6066s
   302   165 3.8483e+07   38  362 1.7428e+08 3.8420e+07  78.0%  1927 6114s
   337   174 3.8483e+07   40  390 1.7428e+08 3.8420e+07  78.0%  1757 6195s
H  339   174                    4.075112e+07 3.8420e+07  5.72%  1747 6195s

Cutting planes:
  Gomory: 79
  Implied bound: 114
  MIR: 547
  StrongCG: 5
  Flow cover: 1151
  RLT: 123
  Relax-and-lift: 14

Explored 361 nodes (1048732 simplex iterations) in 6195.56 seconds (6576.55 work units)
Thread count was 8 (of 80 available processors)

Solution count 10: 4.07511e+07 4.07511e+07 1.74283e+08 ... 8.41506e+09

Optimal solution found (tolerance 1.00e-01)
Best objective 4.075112151051e+07, best bound 3.842006600836e+07, gap 5.7202%

User-callback calls 2400797, time in user-callback 8.77 sec
